NAME : bayg29.4679.tour
COMMENT : Cost = 0_4679
COMMENT : Found by LKH [Keld Helsgaun] Thu Nov 16 16:21:54 2017
TYPE : TOUR
DIMENSION : 48
TOUR_SECTION
1
24
30
21
31
6
32
8
33
13
34
27
35
5
36
12
37
2
38
16
39
9
40
10
41
20
42
26
43
4
44
3
29
45
19
46
23
47
15
18
14
17
22
11
25
7
48
28
-1
EOF
